c File: flat50_3_0.col
c
c SOURCE: Joseph Culberson (joe@cs.ualberta.ca)
c DESCRIPTION: Quasi-random coloring problem
c              generated with flatness = 0
c                             probability = 0.139
c                             known coloring = 3
c                             random seed = 1061
c              Creation Date:  Tue Jun  9 12:00:14 1998
c Maximum degree = 8 Minimum degree = 1
c p edge 50 115
c cnf created by edge2cnf
p cnf 150 545
-1 -2 0
-1 -3 0
-2 -3 0
1 2 3 0
-4 -5 0
-4 -6 0
-5 -6 0
4 5 6 0
-7 -8 0
-7 -9 0
-8 -9 0
7 8 9 0
-10 -11 0
-10 -12 0
-11 -12 0
10 11 12 0
-13 -14 0
-13 -15 0
-14 -15 0
13 14 15 0
-16 -17 0
-16 -18 0
-17 -18 0
16 17 18 0
-19 -20 0
-19 -21 0
-20 -21 0
19 20 21 0
-22 -23 0
-22 -24 0
-23 -24 0
22 23 24 0
-25 -26 0
-25 -27 0
-26 -27 0
25 26 27 0
-28 -29 0
-28 -30 0
-29 -30 0
28 29 30 0
-31 -32 0
-31 -33 0
-32 -33 0
31 32 33 0
-34 -35 0
-34 -36 0
-35 -36 0
34 35 36 0
-37 -38 0
-37 -39 0
-38 -39 0
37 38 39 0
-40 -41 0
-40 -42 0
-41 -42 0
40 41 42 0
-43 -44 0
-43 -45 0
-44 -45 0
43 44 45 0
-46 -47 0
-46 -48 0
-47 -48 0
46 47 48 0
-49 -50 0
-49 -51 0
-50 -51 0
49 50 51 0
-52 -53 0
-52 -54 0
-53 -54 0
52 53 54 0
-55 -56 0
-55 -57 0
-56 -57 0
55 56 57 0
-58 -59 0
-58 -60 0
-59 -60 0
58 59 60 0
-61 -62 0
-61 -63 0
-62 -63 0
61 62 63 0
-64 -65 0
-64 -66 0
-65 -66 0
64 65 66 0
-67 -68 0
-67 -69 0
-68 -69 0
67 68 69 0
-70 -71 0
-70 -72 0
-71 -72 0
70 71 72 0
-73 -74 0
-73 -75 0
-74 -75 0
73 74 75 0
-76 -77 0
-76 -78 0
-77 -78 0
76 77 78 0
-79 -80 0
-79 -81 0
-80 -81 0
79 80 81 0
-82 -83 0
-82 -84 0
-83 -84 0
82 83 84 0
-85 -86 0
-85 -87 0
-86 -87 0
85 86 87 0
-88 -89 0
-88 -90 0
-89 -90 0
88 89 90 0
-91 -92 0
-91 -93 0
-92 -93 0
91 92 93 0
-94 -95 0
-94 -96 0
-95 -96 0
94 95 96 0
-97 -98 0
-97 -99 0
-98 -99 0
97 98 99 0
-100 -101 0
-100 -102 0
-101 -102 0
100 101 102 0
-103 -104 0
-103 -105 0
-104 -105 0
103 104 105 0
-106 -107 0
-106 -108 0
-107 -108 0
106 107 108 0
-109 -110 0
-109 -111 0
-110 -111 0
109 110 111 0
-112 -113 0
-112 -114 0
-113 -114 0
112 113 114 0
-115 -116 0
-115 -117 0
-116 -117 0
115 116 117 0
-118 -119 0
-118 -120 0
-119 -120 0
118 119 120 0
-121 -122 0
-121 -123 0
-122 -123 0
121 122 123 0
-124 -125 0
-124 -126 0
-125 -126 0
124 125 126 0
-127 -128 0
-127 -129 0
-128 -129 0
127 128 129 0
-130 -131 0
-130 -132 0
-131 -132 0
130 131 132 0
-133 -134 0
-133 -135 0
-134 -135 0
133 134 135 0
-136 -137 0
-136 -138 0
-137 -138 0
136 137 138 0
-139 -140 0
-139 -141 0
-140 -141 0
139 140 141 0
-142 -143 0
-142 -144 0
-143 -144 0
142 143 144 0
-145 -146 0
-145 -147 0
-146 -147 0
145 146 147 0
-148 -149 0
-148 -150 0
-149 -150 0
148 149 150 0
-55 -1 0
-56 -2 0
-57 -3 0
-64 -1 0
-65 -2 0
-66 -3 0
-124 -1 0
-125 -2 0
-126 -3 0
-142 -1 0
-143 -2 0
-144 -3 0
-145 -1 0
-146 -2 0
-147 -3 0
-64 -4 0
-65 -5 0
-66 -6 0
-73 -4 0
-74 -5 0
-75 -6 0
-91 -4 0
-92 -5 0
-93 -6 0
-100 -4 0
-101 -5 0
-102 -6 0
-115 -4 0
-116 -5 0
-117 -6 0
-121 -4 0
-122 -5 0
-123 -6 0
-136 -4 0
-137 -5 0
-138 -6 0
-148 -4 0
-149 -5 0
-150 -6 0
-61 -7 0
-62 -8 0
-63 -9 0
-67 -7 0
-68 -8 0
-69 -9 0
-70 -7 0
-71 -8 0
-72 -9 0
-124 -7 0
-125 -8 0
-126 -9 0
-127 -7 0
-128 -8 0
-129 -9 0
-136 -7 0
-137 -8 0
-138 -9 0
-55 -10 0
-56 -11 0
-57 -12 0
-73 -10 0
-74 -11 0
-75 -12 0
-85 -10 0
-86 -11 0
-87 -12 0
-91 -10 0
-92 -11 0
-93 -12 0
-106 -10 0
-107 -11 0
-108 -12 0
-109 -10 0
-110 -11 0
-111 -12 0
-127 -10 0
-128 -11 0
-129 -12 0
-142 -10 0
-143 -11 0
-144 -12 0
-79 -13 0
-80 -14 0
-81 -15 0
-97 -13 0
-98 -14 0
-99 -15 0
-103 -13 0
-104 -14 0
-105 -15 0
-112 -13 0
-113 -14 0
-114 -15 0
-121 -13 0
-122 -14 0
-123 -15 0
-58 -16 0
-59 -17 0
-60 -18 0
-76 -16 0
-77 -17 0
-78 -18 0
-106 -16 0
-107 -17 0
-108 -18 0
-121 -16 0
-122 -17 0
-123 -18 0
-61 -19 0
-62 -20 0
-63 -21 0
-85 -19 0
-86 -20 0
-87 -21 0
-97 -19 0
-98 -20 0
-99 -21 0
-106 -19 0
-107 -20 0
-108 -21 0
-130 -19 0
-131 -20 0
-132 -21 0
-142 -22 0
-143 -23 0
-144 -24 0
-55 -25 0
-56 -26 0
-57 -27 0
-76 -25 0
-77 -26 0
-78 -27 0
-118 -25 0
-119 -26 0
-120 -27 0
-130 -25 0
-131 -26 0
-132 -27 0
-67 -28 0
-68 -29 0
-69 -30 0
-79 -28 0
-80 -29 0
-81 -30 0
-100 -28 0
-101 -29 0
-102 -30 0
-55 -31 0
-56 -32 0
-57 -33 0
-94 -31 0
-95 -32 0
-96 -33 0
-136 -31 0
-137 -32 0
-138 -33 0
-142 -31 0
-143 -32 0
-144 -33 0
-148 -31 0
-149 -32 0
-150 -33 0
-76 -34 0
-77 -35 0
-78 -36 0
-91 -34 0
-92 -35 0
-93 -36 0
-85 -37 0
-86 -38 0
-87 -39 0
-100 -37 0
-101 -38 0
-102 -39 0
-112 -37 0
-113 -38 0
-114 -39 0
-115 -37 0
-116 -38 0
-117 -39 0
-148 -37 0
-149 -38 0
-150 -39 0
-58 -40 0
-59 -41 0
-60 -42 0
-91 -40 0
-92 -41 0
-93 -42 0
-103 -40 0
-104 -41 0
-105 -42 0
-70 -43 0
-71 -44 0
-72 -45 0
-76 -43 0
-77 -44 0
-78 -45 0
-127 -43 0
-128 -44 0
-129 -45 0
-139 -43 0
-140 -44 0
-141 -45 0
-52 -46 0
-53 -47 0
-54 -48 0
-67 -46 0
-68 -47 0
-69 -48 0
-88 -46 0
-89 -47 0
-90 -48 0
-100 -46 0
-101 -47 0
-102 -48 0
-133 -46 0
-134 -47 0
-135 -48 0
-79 -49 0
-80 -50 0
-81 -51 0
-109 -49 0
-110 -50 0
-111 -51 0
-121 -49 0
-122 -50 0
-123 -51 0
-127 -49 0
-128 -50 0
-129 -51 0
-136 -49 0
-137 -50 0
-138 -51 0
-118 -52 0
-119 -53 0
-120 -54 0
-127 -55 0
-128 -56 0
-129 -57 0
-103 -58 0
-104 -59 0
-105 -60 0
-121 -58 0
-122 -59 0
-123 -60 0
-127 -58 0
-128 -59 0
-129 -60 0
-136 -58 0
-137 -59 0
-138 -60 0
-136 -61 0
-137 -62 0
-138 -63 0
-103 -64 0
-104 -65 0
-105 -66 0
-115 -64 0
-116 -65 0
-117 -66 0
-121 -64 0
-122 -65 0
-123 -66 0
-145 -64 0
-146 -65 0
-147 -66 0
-121 -67 0
-122 -68 0
-123 -69 0
-130 -67 0
-131 -68 0
-132 -69 0
-133 -67 0
-134 -68 0
-135 -69 0
-145 -67 0
-146 -68 0
-147 -69 0
-130 -70 0
-131 -71 0
-132 -72 0
-136 -70 0
-137 -71 0
-138 -72 0
-103 -73 0
-104 -74 0
-105 -75 0
-127 -76 0
-128 -77 0
-129 -78 0
-106 -79 0
-107 -80 0
-108 -81 0
-139 -79 0
-140 -80 0
-141 -81 0
-109 -82 0
-110 -83 0
-111 -84 0
-124 -82 0
-125 -83 0
-126 -84 0
-136 -82 0
-137 -83 0
-138 -84 0
-148 -82 0
-149 -83 0
-150 -84 0
-118 -88 0
-119 -89 0
-120 -90 0
-145 -88 0
-146 -89 0
-147 -90 0
-112 -91 0
-113 -92 0
-114 -93 0
-121 -91 0
-122 -92 0
-123 -93 0
-118 -94 0
-119 -95 0
-120 -96 0
-133 -94 0
-134 -95 0
-135 -96 0
-109 -97 0
-110 -98 0
-111 -99 0
-145 -97 0
-146 -98 0
-147 -99 0
-106 -100 0
-107 -101 0
-108 -102 0
-124 -100 0
-125 -101 0
-126 -102 0
-142 -100 0
-143 -101 0
-144 -102 0
-148 -100 0
-149 -101 0
-150 -102 0
